NAME : rnd27_20.tsp
TYPE : TSP
DIMENSION : 20
EDGE_WEIGHT_TYPE : EUC_2D
NODE_COORD_SECTION
0 125 230
1 162 360
2 814 852
3 530 360
4 988 67
5 545 385
6 493 756
7 534 514
8 543 544
9 335 164
10 88 927
11 76 372
12 221 682
13 684 122
14 529 260
15 484 459
16 694 611
17 838 340
18 187 721
19 560 715
